xellos@DARKSTARWS:~/workspace_git/mad-trab2 git:(master)➤ ./run_problem2.sh 
GLPSOL: GLPK LP/MIP Solver, v4.65
Parameter(s) specified in the command line:
 --math problem.mod --data solve.dat -o problem2.sol
Reading model section from problem.mod...
51 lines were read
Reading data section from solve.dat...
386 lines were read
Generating Total_Cost...
Generating total_dcs...
Generating deliver_to...
Generating active_dc...
Model has been successfully generated
GLPK Integer Optimizer, v4.65
144022 rows, 144020 columns, 574943 non-zeros
144020 integer variables, all of which are binary
Preprocessing...
144021 rows, 144020 columns, 431302 non-zeros
144020 integer variables, all of which are binary
Scaling...
 A: min|aij| =  1.000e+00  max|aij| =  1.000e+00  ratio =  1.000e+00
Problem data seem to be well scaled
Constructing initial basis...
Size of triangular part is 144021
Solving LP relaxation...
GLPK Simplex Optimizer, v4.65
144021 rows, 144020 columns, 431302 non-zeros
      0: obj =   5.485295656e+06 inf =   3.790e+02 (379)
      1: obj =   5.510295656e+06 inf =   0.000e+00 (0)
Perturbing LP to avoid stalling [202]...
*  1265: obj =   3.882519083e+06 inf =   0.000e+00 (75412)
*  2722: obj =   3.206565518e+06 inf =   0.000e+00 (71203)
*  3927: obj =   2.912325883e+06 inf =   0.000e+00 (67968) 1
*  5304: obj =   2.525304016e+06 inf =   0.000e+00 (62643) 1
*  6425: obj =   2.218746070e+06 inf =   1.854e-06 (59661) 1
*  7509: obj =   2.218746068e+06 inf =   6.369e-06 (57896) 1
*  8531: obj =   2.218746030e+06 inf =   9.502e-05 (48931) 2
*  9511: obj =   2.218745545e+06 inf =   5.212e-04 (38800) 4
* 10487: obj =   2.218745301e+06 inf =   7.633e-04 (39553) 2
* 11444: obj =   2.218744829e+06 inf =   1.506e-03 (33107) 2
* 12367: obj =   2.218743622e+06 inf =   2.699e-03 (26642) 2
* 13245: obj =   2.218741466e+06 inf =   3.297e-03 (25117) 4
* 14067: obj =   2.218738781e+06 inf =   4.330e-03 (21362) 3
* 14866: obj =   2.218729635e+06 inf =   6.385e-03 (22970) 4
* 15674: obj =   2.218685316e+06 inf =   6.980e-03 (23268) 3
* 16534: obj =   2.029890428e+06 inf =   6.815e-03 (27699) 4
* 17383: obj =   1.989058647e+06 inf =   6.689e-03 (24907) 5
* 18232: obj =   1.924098841e+06 inf =   6.342e-03 (22325) 5
* 19049: obj =   1.883259539e+06 inf =   6.964e-03 (21079) 4
* 19906: obj =   1.840263616e+06 inf =   7.033e-03 (19857) 5
* 20840: obj =   1.776323965e+06 inf =   7.140e-03 (17637) 6
* 21682: obj =   1.776319616e+06 inf =   8.114e-03 (14280) 5
* 22447: obj =   1.776315258e+06 inf =   8.553e-03 (14544) 5
* 23247: obj =   1.683567404e+06 inf =   7.750e-03 (17082) 5
* 24026: obj =   1.583756153e+06 inf =   7.467e-03 (13913) 5
* 24815: obj =   1.583712071e+06 inf =   7.321e-03 (14604) 5
* 25617: obj =   1.531147131e+06 inf =   7.184e-03 (15489) 5
* 26405: obj =   1.436762947e+06 inf =   6.943e-03 (13990) 6
* 27219: obj =   1.324168445e+06 inf =   6.852e-03 (14620) 5
* 27999: obj =   1.300457758e+06 inf =   6.940e-03 (12711) 6
* 28937: obj =   1.245637873e+06 inf =   7.574e-03 (14560) 6
* 29824: obj =   1.197193117e+06 inf =   7.338e-03 (12566) 7
* 30718: obj =   1.180319555e+06 inf =   7.209e-03 (12155) 6
* 31531: obj =   1.081677253e+06 inf =   6.842e-03 (11458) 6
* 32319: obj =   1.060630979e+06 inf =   6.615e-03 (10376) 6
* 33110: obj =   1.026305651e+06 inf =   6.772e-03 (9656) 5
* 33793: obj =   1.026303674e+06 inf =   7.047e-03 (12392) 6
* 34519: obj =   1.026303011e+06 inf =   8.415e-03 (10344) 4
* 35283: obj =   1.007509938e+06 inf =   8.519e-03 (11180) 6
* 36041: obj =   1.004457276e+06 inf =   9.106e-03 (10410) 5
* 36917: obj =   9.907839760e+05 inf =   9.070e-03 (8910) 5
* 37650: obj =   9.907833960e+05 inf =   9.703e-03 (10696) 5
* 38360: obj =   9.907831440e+05 inf =   1.023e-02 (8384) 5
* 39078: obj =   9.907825278e+05 inf =   1.066e-02 (7675) 5
* 39775: obj =   9.907824017e+05 inf =   1.108e-02 (9403) 5
* 40484: obj =   9.907822999e+05 inf =   1.290e-02 (5226) 5
* 41241: obj =   9.907822323e+05 inf =   1.350e-02 (2308) 6
* 42031: obj =   9.896276825e+05 inf =   1.325e-02 (781) 6
* 42854: obj =   9.895230359e+05 inf =   1.316e-02 (36) 6
Removing LP perturbation [42885]...
* 42885: obj =   9.895251756e+05 inf =   7.594e-14 (0)
OPTIMAL LP SOLUTION FOUND
Integer optimization begins...
Long-step dual simplex will be used
+ 42885: mip =     not found yet >=              -inf        (1; 0)
+ 42885: >>>>>   9.895251756e+05 >=   9.895251756e+05   0.0% (1; 0)
+ 42885: mip =   9.895251756e+05 >=     tree is empty   0.0% (0; 1)
INTEGER OPTIMAL SOLUTION FOUND
Time used:   245.8 secs
Memory used: 395.5 Mb (414683880 bytes)


*********************************************************************
Town with MINIMUM cost (DC): Lisbon (255836€)
Town with MINIMUM cost (DC): Loule (67782€)
Town with MINIMUM cost (DC): Ourem (156246€)
Town with MINIMUM cost (DC): Pedroucos (265507€)
Town with MINIMUM cost (DC): Sernancelhe (119155€)
*********************************************************************
Town with LARGEST DELIVERY cost: Evora (25688€) [from Lisbon]
Town with LARGEST DELIVERY cost: Beja (12070€) [from Loule]
Town with LARGEST DELIVERY cost: Coimbra (26200€) [from Ourem]
Town with LARGEST DELIVERY cost: Braga (21418€) [from Pedroucos]
Town with LARGEST DELIVERY cost: Braganca (19004€) [from Sernancelhe]
*********************************************************************

Model has been successfully processed
Writing MIP solution to 'problem2.sol'...
▶▶▶ 14:48.40 Sun Apr 26 2020 ◀◀◀                                                                                                                                                       